p tw 20 53
0 1
0 6
0 9
0 14
0 11
0 19
0 15
0 12
0 8
1 15
1 6
1 8
1 19
1 7
2 3
2 12
2 4
2 11
2 16
2 7
3 17
3 5
3 16
4 5
4 16
4 15
5 9
5 17
5 12
6 10
6 11
6 15
7 8
7 15
7 16
7 10
7 14
8 16
8 12
8 17
8 13
8 18
9 10
10 11
10 16
11 13
11 12
11 16
12 13
14 18
14 19
15 18
16 19
